(declare-const a Real)
(declare-const b Real)
(declare-const c Real)
(assert (= (* a b c) 1))
(assert (> a 0))
(assert (> b 0))
(assert (> c 0))
(assert (not (<= (+ (* -6456 (pow a 4)) (* 351 (pow (+ a b) 4)) (* -29688 (pow a (/ 1152 1237)) (pow b (/ 3796 1237))) (* 2400 b (pow a 3)) (* 10368 (pow a (/ 5 3)) (pow b (/ 7 3))) (* 17760 a (pow b 3))) 0)))
(check-sat)
(get-model)
(exit)